BAYES
625
2 2 2 2 2 2 2 2 2 2 2 2 2 2 2 2 2 2 2 2 2 2 2 2 2 2 2 2 2 2 2 2 2 2 2 2 2 2 2 2 2 2 2 2 2 2 2 2 2 2 2 2 2 2 2 2 2 2 2 2 2 2 2 2 2 2 2 2 2 2 2 2 2 2 2 2 2 2 2 2 2 2 2 2 2 2 2 2 2 2 2 2 2 2 2 2 2 2 2 2 2 2 2 2 2 2 2 2 2 2 2 2 2 2 2 2 2 2 2 2 2 2 2 2 2 2 2 2 2 2 2 2 2 2 2 2 2 2 2 2 2 2 2 2 2 2 2 2 2 2 2 2 2 2 2 2 2 2 2 2 2 2 2 2 2 2 2 2 2 2 2 2 2 2 2 2 2 2 2 2 2 2 2 2 2 2 2 2 2 2 2 2 2 2 2 2 2 2 2 2 2 2 2 2 2 2 2 2 2 2 2 2 2 2 2 2 2 2 2 2 2 2 2 2 2 2 2 2 2 2 2 2 2 2 2 2 2 2 2 2 2 2 2 2 2 2 2 2 2 2 2 2 2 2 2 2 2 2 2 2 2 2 2 2 2 2 2 2 2 2 2 2 2 2 2 2 2 2 2 2 2 2 2 2 2 2 2 2 2 2 2 2 2 2 2 2 2 2 2 2 2 2 2 2 2 2 2 2 2 2 2 2 2 2 2 2 2 2 2 2 2 2 2 2 2 2 2 2 2 2 2 2 2 2 2 2 2 2 2 2 2 2 2 2 2 2 2 2 2 2 2 2 2 2 2 2 2 2 2 2 2 2 2 2 2 2 2 2 2 2 2 2 2 2 2 2 2 2 2 2 2 2 2 2 2 2 2 2 2 2 2 2 2 2 2 2 2 2 2 2 2 2 2 2 2 2 2 2 2 2 2 2 2 2 2 2 2 2 2 2 2 2 2 2 2 2 2 2 2 2 2 2 2 2 2 2 2 2 2 2 2 2 2 2 2 2 2 2 2 2 2 2 2 2 2 2 2 2 2 2 2 2 2 2 2 2 2 2 2 2 2 2 2 2 2 2 2 2 2 2 2 2 2 2 2 2 2 2 2 2 2 2 2 2 2 2 2 2 2 2 2 2 2 2 2 2 2 2 2 2 2 2 2 2 2 2 2 2 2 2 2 2 2 2 2 2 2 2 2 2 2 2 2 2 2 2 2 2 2 2 2 2 2 2 2 2 2 2 2 2 2 2 2 2 2 2 2 2 2 2 2 2 2 2 2 2 2 2 2 2 2 2 2 2 2 2 2 2 2 2 2 2 2 2 2 2 2 2 2 2 2 2 2 2 2 2 2 2 2 2 2 2 2 2 2 2 2 2 2 2 2 2 2 2 2 2 2 2 2 2 2 2 2 2 2
625
1 0
2 0 1
2 1 2
2 2 3
2 3 4
2 4 5
2 5 6
2 6 7
2 7 8
2 8 9
2 9 10
2 10 11
2 11 12
2 12 13
2 13 14
2 14 15
2 15 16
2 16 17
2 17 18
2 18 19
2 19 20
2 20 21
2 21 22
2 22 23
2 23 24
2 0 25
3 1 25 26
3 2 26 27
3 3 27 28
3 4 28 29
3 5 29 30
3 6 30 31
3 7 31 32
3 8 32 33
3 9 33 34
3 10 34 35
3 11 35 36
3 12 36 37
3 13 37 38
3 14 38 39
3 15 39 40
3 16 40 41
3 17 41 42
3 18 42 43
3 19 43 44
3 20 44 45
3 21 45 46
3 22 46 47
3 23 47 48
3 24 48 49
2 25 50
3 26 50 51
3 27 51 52
3 28 52 53
3 29 53 54
3 30 54 55
3 31 55 56
3 32 56 57
3 33 57 58
3 34 58 59
3 35 59 60
3 36 60 61
3 37 61 62
3 38 62 63
3 39 63 64
3 40 64 65
3 41 65 66
3 42 66 67
3 43 67 68
3 44 68 69
3 45 69 70
3 46 70 71
3 47 71 72
3 48 72 73
3 49 73 74
2 50 75
3 51 75 76
3 52 76 77
3 53 77 78
3 54 78 79
3 55 79 80
3 56 80 81
3 57 81 82
3 58 82 83
3 59 83 84
3 60 84 85
3 61 85 86
3 62 86 87
3 63 87 88
3 64 88 89
3 65 89 90
3 66 90 91
3 67 91 92
3 68 92 93
3 69 93 94
3 70 94 95
3 71 95 96
3 72 96 97
3 73 97 98
3 74 98 99
2 75 100
3 76 100 101
3 77 101 102
3 78 102 103
3 79 103 104
3 80 104 105
3 81 105 106
3 82 106 107
3 83 107 108
3 84 108 109
3 85 109 110
3 86 110 111
3 87 111 112
3 88 112 113
3 89 113 114
3 90 114 115
3 91 115 116
3 92 116 117
3 93 117 118
3 94 118 119
3 95 119 120
3 96 120 121
3 97 121 122
3 98 122 123
3 99 123 124
2 100 125
3 101 125 126
3 102 126 127
3 103 127 128
3 104 128 129
3 105 129 130
3 106 130 131
3 107 131 132
3 108 132 133
3 109 133 134
3 110 134 135
3 111 135 136
3 112 136 137
3 113 137 138
3 114 138 139
3 115 139 140
3 116 140 141
3 117 141 142
3 118 142 143
3 119 143 144
3 120 144 145
3 121 145 146
3 122 146 147
3 123 147 148
3 124 148 149
2 125 150
3 126 150 151
3 127 151 152
3 128 152 153
3 129 153 154
3 130 154 155
3 131 155 156
3 132 156 157
3 133 157 158
3 134 158 159
3 135 159 160
3 136 160 161
3 137 161 162
3 138 162 163
3 139 163 164
3 140 164 165
3 141 165 166
3 142 166 167
3 143 167 168
3 144 168 169
3 145 169 170
3 146 170 171
3 147 171 172
3 148 172 173
3 149 173 174
2 150 175
3 151 175 176
3 152 176 177
3 153 177 178
3 154 178 179
3 155 179 180
3 156 180 181
3 157 181 182
3 158 182 183
3 159 183 184
3 160 184 185
3 161 185 186
3 162 186 187
3 163 187 188
3 164 188 189
3 165 189 190
3 166 190 191
3 167 191 192
3 168 192 193
3 169 193 194
3 170 194 195
3 171 195 196
3 172 196 197
3 173 197 198
3 174 198 199
2 175 200
3 176 200 201
3 177 201 202
3 178 202 203
3 179 203 204
3 180 204 205
3 181 205 206
3 182 206 207
3 183 207 208
3 184 208 209
3 185 209 210
3 186 210 211
3 187 211 212
3 188 212 213
3 189 213 214
3 190 214 215
3 191 215 216
3 192 216 217
3 193 217 218
3 194 218 219
3 195 219 220
3 196 220 221
3 197 221 222
3 198 222 223
3 199 223 224
2 200 225
3 201 225 226
3 202 226 227
3 203 227 228
3 204 228 229
3 205 229 230
3 206 230 231
3 207 231 232
3 208 232 233
3 209 233 234
3 210 234 235
3 211 235 236
3 212 236 237
3 213 237 238
3 214 238 239
3 215 239 240
3 216 240 241
3 217 241 242
3 218 242 243
3 219 243 244
3 220 244 245
3 221 245 246
3 222 246 247
3 223 247 248
3 224 248 249
2 225 250
3 226 250 251
3 227 251 252
3 228 252 253
3 229 253 254
3 230 254 255
3 231 255 256
3 232 256 257
3 233 257 258
3 234 258 259
3 235 259 260
3 236 260 261
3 237 261 262
3 238 262 263
3 239 263 264
3 240 264 265
3 241 265 266
3 242 266 267
3 243 267 268
3 244 268 269
3 245 269 270
3 246 270 271
3 247 271 272
3 248 272 273
3 249 273 274
2 250 275
3 251 275 276
3 252 276 277
3 253 277 278
3 254 278 279
3 255 279 280
3 256 280 281
3 257 281 282
3 258 282 283
3 259 283 284
3 260 284 285
3 261 285 286
3 262 286 287
3 263 287 288
3 264 288 289
3 265 289 290
3 266 290 291
3 267 291 292
3 268 292 293
3 269 293 294
3 270 294 295
3 271 295 296
3 272 296 297
3 273 297 298
3 274 298 299
2 275 300
3 276 300 301
3 277 301 302
3 278 302 303
3 279 303 304
3 280 304 305
3 281 305 306
3 282 306 307
3 283 307 308
3 284 308 309
3 285 309 310
3 286 310 311
3 287 311 312
3 288 312 313
3 289 313 314
3 290 314 315
3 291 315 316
3 292 316 317
3 293 317 318
3 294 318 319
3 295 319 320
3 296 320 321
3 297 321 322
3 298 322 323
3 299 323 324
2 300 325
3 301 325 326
3 302 326 327
3 303 327 328
3 304 328 329
3 305 329 330
3 306 330 331
3 307 331 332
3 308 332 333
3 309 333 334
3 310 334 335
3 311 335 336
3 312 336 337
3 313 337 338
3 314 338 339
3 315 339 340
3 316 340 341
3 317 341 342
3 318 342 343
3 319 343 344
3 320 344 345
3 321 345 346
3 322 346 347
3 323 347 348
3 324 348 349
2 325 350
3 326 350 351
3 327 351 352
3 328 352 353
3 329 353 354
3 330 354 355
3 331 355 356
3 332 356 357
3 333 357 358
3 334 358 359
3 335 359 360
3 336 360 361
3 337 361 362
3 338 362 363
3 339 363 364
3 340 364 365
3 341 365 366
3 342 366 367
3 343 367 368
3 344 368 369
3 345 369 370
3 346 370 371
3 347 371 372
3 348 372 373
3 349 373 374
2 350 375
3 351 375 376
3 352 376 377
3 353 377 378
3 354 378 379
3 355 379 380
3 356 380 381
3 357 381 382
3 358 382 383
3 359 383 384
3 360 384 385
3 361 385 386
3 362 386 387
3 363 387 388
3 364 388 389
3 365 389 390
3 366 390 391
3 367 391 392
3 368 392 393
3 369 393 394
3 370 394 395
3 371 395 396
3 372 396 397
3 373 397 398
3 374 398 399
2 375 400
3 376 400 401
3 377 401 402
3 378 402 403
3 379 403 404
3 380 404 405
3 381 405 406
3 382 406 407
3 383 407 408
3 384 408 409
3 385 409 410
3 386 410 411
3 387 411 412
3 388 412 413
3 389 413 414
3 390 414 415
3 391 415 416
3 392 416 417
3 393 417 418
3 394 418 419
3 395 419 420
3 396 420 421
3 397 421 422
3 398 422 423
3 399 423 424
2 400 425
3 401 425 426
3 402 426 427
3 403 427 428
3 404 428 429
3 405 429 430
3 406 430 431
3 407 431 432
3 408 432 433
3 409 433 434
3 410 434 435
3 411 435 436
3 412 436 437
3 413 437 438
3 414 438 439
3 415 439 440
3 416 440 441
3 417 441 442
3 418 442 443
3 419 443 444
3 420 444 445
3 421 445 446
3 422 446 447
3 423 447 448
3 424 448 449
2 425 450
3 426 450 451
3 427 451 452
3 428 452 453
3 429 453 454
3 430 454 455
3 431 455 456
3 432 456 457
3 433 457 458
3 434 458 459
3 435 459 460
3 436 460 461
3 437 461 462
3 438 462 463
3 439 463 464
3 440 464 465
3 441 465 466
3 442 466 467
3 443 467 468
3 444 468 469
3 445 469 470
3 446 470 471
3 447 471 472
3 448 472 473
3 449 473 474
2 450 475
3 451 475 476
3 452 476 477
3 453 477 478
3 454 478 479
3 455 479 480
3 456 480 481
3 457 481 482
3 458 482 483
3 459 483 484
3 460 484 485
3 461 485 486
3 462 486 487
3 463 487 488
3 464 488 489
3 465 489 490
3 466 490 491
3 467 491 492
3 468 492 493
3 469 493 494
3 470 494 495
3 471 495 496
3 472 496 497
3 473 497 498
3 474 498 499
2 475 500
3 476 500 501
3 477 501 502
3 478 502 503
3 479 503 504
3 480 504 505
3 481 505 506
3 482 506 507
3 483 507 508
3 484 508 509
3 485 509 510
3 486 510 511
3 487 511 512
3 488 512 513
3 489 513 514
3 490 514 515
3 491 515 516
3 492 516 517
3 493 517 518
3 494 518 519
3 495 519 520
3 496 520 521
3 497 521 522
3 498 522 523
3 499 523 524
2 500 525
3 501 525 526
3 502 526 527
3 503 527 528
3 504 528 529
3 505 529 530
3 506 530 531
3 507 531 532
3 508 532 533
3 509 533 534
3 510 534 535
3 511 535 536
3 512 536 537
3 513 537 538
3 514 538 539
3 515 539 540
3 516 540 541
3 517 541 542
3 518 542 543
3 519 543 544
3 520 544 545
3 521 545 546
3 522 546 547
3 523 547 548
3 524 548 549
2 525 550
3 526 550 551
3 527 551 552
3 528 552 553
3 529 553 554
3 530 554 555
3 531 555 556
3 532 556 557
3 533 557 558
3 534 558 559
3 535 559 560
3 536 560 561
3 537 561 562
3 538 562 563
3 539 563 564
3 540 564 565
3 541 565 566
3 542 566 567
3 543 567 568
3 544 568 569
3 545 569 570
3 546 570 571
3 547 571 572
3 548 572 573
3 549 573 574
2 550 575
3 551 575 576
3 552 576 577
3 553 577 578
3 554 578 579
3 555 579 580
3 556 580 581
3 557 581 582
3 558 582 583
3 559 583 584
3 560 584 585
3 561 585 586
3 562 586 587
3 563 587 588
3 564 588 589
3 565 589 590
3 566 590 591
3 567 591 592
3 568 592 593
3 569 593 594
3 570 594 595
3 571 595 596
3 572 596 597
3 573 597 598
3 574 598 599
2 575 600
3 576 600 601
3 577 601 602
3 578 602 603
3 579 603 604
3 580 604 605
3 581 605 606
3 582 606 607
3 583 607 608
3 584 608 609
3 585 609 610
3 586 610 611
3 587 611 612
3 588 612 613
3 589 613 614
3 590 614 615
3 591 615 616
3 592 616 617
3 593 617 618
3 594 618 619
3 595 619 620
3 596 620 621
3 597 621 622
3 598 622 623
3 599 623 624
2
0 1
4
0 1 1 0
4
1 0 1 0
4
0 1 1 0
4
1 0 1 0
4
1 0 0 1
4
0 1 1 0
4
1 0 0 1
4
1 0 0 1
4
1 0 1 0
4
0 1 1 0
4
1 0 0 1
4
1 0 0 1
4
1 0 1 0
4
1 0 1 0
4
1 0 1 0
4
0 1 1 0
4
0 1 0 1
4
0 1 1 0
4
0.3515373391862461 0.6484626608137539 0.9198282603590999 0.08017173964090009
4
1 0 0 1
4
1 0 0 1
4
1 0 0 1
4
1 0 0 1
4
0.9254499179995198 0.07455008200048027 0.6425379156746672 0.3574620843253328
4
1 0 0 1
8
0 1 0 1 1 0 0 1
8
0.0983379550073632 0.9016620449926367 0.16790950159035006 0.8320904984096501 0.8810735022278653 0.1189264977721347 0.5458123663788425 0.4541876336211575
8
0 1 1 0 0 1 1 0
8
0 1 0 1 1 0 1 0
8
1 0 0 1 0 1 1 0
8
0 1 1 0 1 0 1 0
8
1 0 1 0 1 0 0 1
8
1 0 0 1 0 1 0 1
8
1 0 0 1 0 1 0 1
8
1 0 1 0 1 0 0 1
8
1 0 0 1 1 0 0 1
8
1 0 0 1 0 1 1 0
8
0.44104346734857186 0.5589565326514282 0.5098428869396372 0.49015711306036286 0.4279181049879871 0.5720818950120128 0.013784447809526227 0.9862155521904737
8
1 0 0 1 1 0 1 0
8
1 0 0 1 1 0 1 0
8
0 1 0 1 0 1 1 0
8
0 1 1 0 0 1 1 0
8
1 0 0 1 0 1 0 1
8
0 1 0 1 1 0 1 0
8
0 1 1 0 0 1 1 0
8
0 1 1 0 1 0 1 0
8
0 1 0 1 1 0 1 0
8
0.7101076095139099 0.28989239048609 0.14206276303767054 0.8579372369623295 0.6289162002947274 0.37108379970527255 0.7862311386105248 0.2137688613894752
8
0 1 0 1 0 1 1 0
4
0 1 1 0
8
0 1 0 1 0 1 0 1
8
1 0 1 0 1 0 1 0
8
0 1 0 1 0 1 1 0
8
0.36848199167558077 0.6315180083244192 0.6008844043190255 0.3991155956809745 0.5217098615290802 0.47829013847091983 0.4802332249548304 0.5197667750451697
8
0 1 1 0 1 0 1 0
8
0 1 0 1 1 0 1 0
8
0 1 0 1 0 1 1 0
8
0.9257737621169311 0.0742262378830689 0.41029964527025425 0.5897003547297458 0.27833345705183304 0.721666542948167 0.9408480694239063 0.059151930576093664
8
0 1 1 0 1 0 0 1
8
0 1 0 1 1 0 0 1
8
0 1 1 0 1 0 1 0
8
1 0 1 0 1 0 0 1
8
0 1 1 0 1 0 1 0
8
1 0 1 0 0 1 0 1
8
0 1 1 0 0 1 1 0
8
1 0 0 1 0 1 0 1
8
1 0 1 0 0 1 0 1
8
0 1 1 0 0 1 0 1
8
1 0 0 1 0 1 0 1
8
1 0 1 0 0 1 1 0
8
0 1 1 0 0 1 1 0
8
0 1 0 1 0 1 1 0
8
1 0 1 0 0 1 0 1
8
0 1 0 1 1 0 0 1
4
1 0 1 0
8
0 1 1 0 1 0 0 1
8
1 0 1 0 1 0 0 1
8
0 1 0 1 1 0 0 1
8
0.5477763715870406 0.45222362841295943 0.4920014629998124 0.5079985370001877 0.4969462336108774 0.5030537663891227 0.6422069804175389 0.35779301958246124
8
1 0 1 0 1 0 0 1
8
1 0 1 0 0 1 1 0
8
1 0 0 1 0 1 1 0
8
0.5317889365520831 0.4682110634479168 0.04291811899274388 0.9570818810072561 0.5727915228802815 0.42720847711971854 0.8561297206374646 0.14387027936253524
8
0 1 1 0 1 0 1 0
8
0 1 0 1 1 0 0 1
8
1 0 1 0 0 1 1 0
8
0 1 1 0 0 1 0 1
8
0 1 0 1 0 1 0 1
8
1 0 1 0 1 0 0 1
8
1 0 1 0 1 0 1 0
8
0 1 1 0 0 1 1 0
8
1 0 1 0 0 1 0 1
8
1 0 0 1 0 1 0 1
8
0.9364692825312935 0.06353071746870657 0.507558597886535 0.49244140211346493 0.7487562594587478 0.2512437405412522 0.48920425590710337 0.5107957440928966
8
0 1 0 1 0 1 1 0
8
1 0 1 0 1 0 0 1
8
1 0 0 1 1 0 0 1
8
0 1 0 1 1 0 0 1
8
0 1 1 0 0 1 0 1
4
0 1 1 0
8
0 1 0 1 1 0 1 0
8
0 1 0 1 0 1 1 0
8
1 0 0 1 0 1 1 0
8
1 0 1 0 0 1 1 0
8
1 0 1 0 0 1 1 0
8
1 0 0 1 0 1 1 0
8
1 0 1 0 1 0 0 1
8
0 1 0 1 0 1 1 0
8
0.7381189161364764 0.2618810838635236 0.5156469528333918 0.4843530471666083 0.5453595629461622 0.45464043705383783 0.2178903738317576 0.7821096261682424
8
1 0 1 0 0 1 1 0
8
1 0 0 1 1 0 0 1
8
1 0 0 1 0 1 0 1
8
1 0 0 1 1 0 1 0
8
1 0 0 1 0 1 0 1
8
1 0 1 0 1 0 1 0
8
0 1 1 0 1 0 1 0
8
0.34981832681881364 0.6501816731811864 0.6025280648799438 0.39747193512005613 0.20656306813779718 0.7934369318622028 0.5490055416943553 0.4509944583056447
8
1 0 1 0 0 1 0 1
8
0 1 0 1 0 1 0 1
8
1 0 1 0 1 0 1 0
8
1 0 0 1 1 0 0 1
8
0 1 0 1 0 1 1 0
8
1 0 1 0 0 1 1 0
8
1 0 1 0 0 1 1 0
4
1 0 0 1
8
1 0 1 0 0 1 0 1
8
0.4734208875245218 0.5265791124754783 0.4216610363349533 0.5783389636650468 0.7759811049667542 0.22401889503324582 0.5118967925189273 0.48810320748107283
8
1 0 0 1 0 1 1 0
8
1 0 0 1 0 1 0 1
8
0 1 0 1 1 0 1 0
8
1 0 0 1 0 1 0 1
8
0 1 1 0 0 1 1 0
8
1 0 1 0 0 1 0 1
8
0 1 1 0 0 1 1 0
8
1 0 0 1 0 1 0 1
8
1 0 0 1 1 0 1 0
8
1 0 0 1 0 1 0 1
8
0 1 1 0 0 1 0 1
8
0 1 0 1 1 0 1 0
8
1 0 0 1 1 0 0 1
8
1 0 0 1 0 1 1 0
8
1 0 0 1 1 0 1 0
8
0.5759104404349309 0.42408955956506905 0.6530070789303384 0.3469929210696617 0.10877462090432319 0.8912253790956768 0.6274844084450586 0.37251559155494146
8
1 0 0 1 1 0 0 1
8
1 0 1 0 0 1 0 1
8
1 0 0 1 1 0 1 0
8
1 0 1 0 1 0 1 0
8
0.17809285635977953 0.8219071436402204 0.7898310996805074 0.2101689003194926 0.3626641946922985 0.6373358053077015 0.5921463948036799 0.4078536051963201
8
0 1 1 0 0 1 0 1
4
0 1 0 1
8
0 1 0 1 1 0 1 0
8
1 0 0 1 1 0 0 1
8
1 0 1 0 0 1 1 0
8
1 0 0 1 1 0 0 1
8
0 1 0 1 1 0 1 0
8
0 1 1 0 0 1 0 1
8
1 0 0 1 0 1 0 1
8
1 0 0 1 0 1 1 0
8
1 0 1 0 1 0 1 0
8
1 0 0 1 1 0 1 0
8
0.37474726820235194 0.6252527317976481 0.4133725189671315 0.5866274810328685 0.5033594693236018 0.4966405306763982 0.5116660528616649 0.4883339471383351
8
1 0 0 1 0 1 0 1
8
1 0 0 1 0 1 0 1
8
1 0 0 1 0 1 1 0
8
1 0 0 1 1 0 0 1
8
0 1 1 0 1 0 1 0
8
1 0 0 1 1 0 1 0
8
0 1 1 0 0 1 1 0
8
0.33439027905948093 0.6656097209405191 0.9074240735464005 0.09257592645359945 0.7290958744102296 0.2709041255897704 0.8035772910529755 0.19642270894702454
8
1 0 1 0 1 0 1 0
8
1 0 1 0 0 1 0 1
8
1 0 1 0 1 0 1 0
8
1 0 1 0 1 0 0 1
8
1 0 1 0 1 0 0 1
4
1 0 1 0
8
0 1 1 0 0 1 0 1
8
0.4951003651447895 0.5048996348552105 0.5437034994631026 0.4562965005368974 0.33974496627611095 0.660255033723889 0.3279638034900295 0.6720361965099706
8
0 1 0 1 0 1 0 1
8
0 1 1 0 0 1 1 0
8
1 0 1 0 0 1 0 1
8
0.6645940039639929 0.33540599603600707 0.1736695573520287 0.8263304426479713 0.3274917474313567 0.6725082525686434 0.32447836436070315 0.6755216356392969
8
1 0 0 1 0 1 0 1
8
1 0 1 0 0 1 1 0
8
1 0 1 0 0 1 0 1
8
0 1 0 1 0 1 1 0
8
1 0 1 0 0 1 1 0
8
1 0 1 0 0 1 0 1
8
0.5508004569872385 0.4491995430127615 0.2744798391343674 0.7255201608656325 0.6372826514100585 0.3627173485899414 0.5199179557535604 0.48008204424643963
8
1 0 1 0 1 0 1 0
8
1 0 0 1 1 0 1 0
8
1 0 1 0 1 0 0 1
8
1 0 1 0 1 0 1 0
8
0 1 0 1 1 0 1 0
8
0 1 1 0 0 1 1 0
8
0 1 1 0 0 1 0 1
8
1 0 1 0 0 1 0 1
8
0 1 0 1 0 1 0 1
8
0 1 0 1 0 1 1 0
8
0 1 0 1 0 1 0 1
4
0 1 0 1
8
1 0 1 0 0 1 0 1
8
1 0 1 0 1 0 1 0
8
0 1 0 1 1 0 1 0
8
1 0 1 0 1 0 1 0
8
0.32938384859856984 0.6706161514014302 0.9292296998704177 0.07077030012958231 0.004639375303988832 0.9953606246960112 0.9427769464291373 0.0572230535708627
8
1 0 0 1 0 1 0 1
8
0 1 0 1 0 1 1 0
8
1 0 1 0 0 1 1 0
8
0 1 0 1 1 0 1 0
8
0 1 1 0 1 0 0 1
8
1 0 1 0 1 0 1 0
8
1 0 0 1 0 1 0 1
8
0 1 0 1 1 0 0 1
8
1 0 1 0 0 1 1 0
8
1 0 1 0 0 1 0 1
8
0 1 1 0 0 1 0 1
8
0 1 1 0 0 1 1 0
8
0 1 1 0 0 1 1 0
8
1 0 0 1 0 1 0 1
8
1 0 1 0 1 0 0 1
8
1 0 0 1 1 0 1 0
8
0 1 0 1 0 1 1 0
8
0 1 1 0 1 0 1 0
8
0 1 0 1 1 0 1 0
4
0 1 0 1
8
0 1 0 1 0 1 0 1
8
0 1 0 1 0 1 1 0
8
0 1 0 1 1 0 1 0
8
1 0 0 1 1 0 0 1
8
1 0 1 0 0 1 0 1
8
0 1 1 0 0 1 0 1
8
0.36785033200028755 0.6321496679997124 0.6348405963155952 0.3651594036844048 0.4203357820582005 0.5796642179417995 0.7117990068962354 0.28820099310376457
8
0.604715424959365 0.3952845750406349 0.04431175238607045 0.9556882476139296 0.13720442999176077 0.8627955700082393 0.6715120719966241 0.32848792800337595
8
1 0 0 1 0 1 1 0
8
0 1 1 0 1 0 0 1
8
1 0 0 1 1 0 1 0
8
0.6199727342201844 0.38002726577981555 0.40909595337912075 0.5909040466208793 0.484172912381909 0.5158270876180909 0.36648932387014804 0.6335106761298519
8
0 1 1 0 1 0 0 1
8
0 1 0 1 0 1 0 1
8
1 0 1 0 0 1 0 1
8
0.6208419759824292 0.37915802401757087 0.599504254707718 0.40049574529228205 0.5412552916807458 0.4587447083192541 0.9500702873514459 0.049929712648554066
8
1 0 1 0 0 1 0 1
8
1 0 0 1 0 1 1 0
8
1 0 1 0 0 1 1 0
8
0.36651288379117747 0.6334871162088226 0.5163366628597521 0.4836633371402479 0.331053959046251 0.668946040953749 0.9684740468501392 0.03152595314986084
8
1 0 1 0 0 1 0 1
8
1 0 1 0 1 0 1 0
8
0 1 1 0 1 0 1 0
8
0 1 1 0 0 1 0 1
4
1 0 1 0
8
1 0 0 1 0 1 0 1
8
0 1 0 1 1 0 1 0
8
1 0 0 1 0 1 0 1
8
1 0 0 1 0 1 1 0
8
1 0 0 1 1 0 0 1
8
1 0 1 0 1 0 0 1
8
0.9726292183371658 0.027370781662834284 0.47444141506731763 0.5255585849326824 0.3980727077008968 0.6019272922991031 0.4885370558386721 0.511462944161328
8
1 0 0 1 1 0 0 1
8
1 0 0 1 1 0 1 0
8
0 1 1 0 0 1 0 1
8
1 0 0 1 1 0 1 0
8
1 0 0 1 1 0 0 1
8
1 0 0 1 0 1 1 0
8
0.6216831822207926 0.3783168177792074 0.4458872955270312 0.5541127044729688 0.435894989315423 0.5641050106845771 0.9742752625071648 0.025724737492835225
8
0.5534181091082147 0.44658189089178535 0.43375310107149057 0.5662468989285094 0.7186615275289268 0.2813384724710733 0.13525133851046453 0.8647486614895354
8
1 0 1 0 1 0 0 1
8
1 0 0 1 0 1 1 0
8
0.252834475482709 0.747165524517291 0.8420354120289703 0.15796458797102977 0.7070737667689179 0.29292623323108213 0.22146871703824136 0.7785312829617587
8
0 1 1 0 1 0 1 0
8
0 1 1 0 1 0 1 0
8
0 1 0 1 1 0 0 1
8
1 0 1 0 1 0 0 1
8
1 0 1 0 0 1 1 0
8
0 1 0 1 1 0 0 1
4
0 1 0 1
8
0.03541914619920542 0.9645808538007946 0.6085264394810382 0.3914735605189618 0.6291016084827966 0.3708983915172034 0.6158848316377126 0.3841151683622874
8
0 1 1 0 0 1 0 1
8
1 0 1 0 1 0 0 1
8
0 1 1 0 0 1 1 0
8
1 0 0 1 0 1 1 0
8
0 1 0 1 0 1 1 0
8
1 0 1 0 1 0 0 1
8
0 1 0 1 1 0 1 0
8
1 0 1 0 1 0 0 1
8
1 0 1 0 1 0 1 0
8
1 0 1 0 1 0 1 0
8
0 1 1 0 1 0 0 1
8
1 0 0 1 1 0 1 0
8
1 0 0 1 0 1 1 0
8
1 0 0 1 1 0 1 0
8
1 0 1 0 1 0 0 1
8
1 0 1 0 0 1 0 1
8
1 0 1 0 0 1 0 1
8
1 0 1 0 1 0 1 0
8
0 1 1 0 0 1 0 1
8
0 1 1 0 1 0 1 0
8
1 0 0 1 1 0 1 0
8
1 0 1 0 0 1 1 0
8
0 1 0 1 0 1 0 1
4
0 1 0 1
8
0 1 1 0 1 0 0 1
8
1 0 1 0 0 1 1 0
8
0 1 1 0 0 1 0 1
8
0 1 0 1 1 0 1 0
8
1 0 1 0 0 1 1 0
8
0 1 1 0 0 1 1 0
8
0 1 0 1 0 1 0 1
8
0 1 0 1 1 0 0 1
8
0 1 1 0 0 1 1 0
8
0 1 0 1 1 0 1 0
8
1 0 0 1 1 0 1 0
8
0 1 1 0 0 1 0 1
8
0 1 0 1 1 0 0 1
8
0 1 1 0 1 0 1 0
8
1 0 0 1 1 0 0 1
8
1 0 0 1 1 0 1 0
8
0 1 1 0 0 1 1 0
8
1 0 1 0 0 1 1 0
8
0 1 0 1 0 1 1 0
8
0.8734330437066713 0.12656695629332868 0.6690529315480557 0.3309470684519443 0.03551747556711228 0.9644825244328877 0.18470642459755174 0.8152935754024483
8
0 1 0 1 1 0 1 0
8
0 1 1 0 0 1 0 1
8
1 0 1 0 0 1 1 0
8
0 1 1 0 1 0 1 0
4
0 1 1 0
8
1 0 1 0 0 1 0 1
8
1 0 1 0 0 1 1 0
8
1 0 0 1 1 0 1 0
8
0 1 0 1 1 0 0 1
8
1 0 1 0 1 0 0 1
8
0 1 0 1 1 0 1 0
8
0 1 0 1 1 0 1 0
8
0.5608746671433038 0.4391253328566962 0.05031654397428731 0.9496834560257127 0.8455332155969872 0.15446678440301273 0.16539401298182702 0.834605987018173
8
0 1 1 0 0 1 1 0
8
1 0 1 0 0 1 1 0
8
0 1 0 1 0 1 1 0
8
0 1 0 1 1 0 0 1
8
0 1 1 0 0 1 1 0
8
1 0 1 0 0 1 0 1
8
1 0 1 0 0 1 1 0
8
0 1 1 0 1 0 0 1
8
0 1 0 1 1 0 0 1
8
0 1 1 0 0 1 0 1
8
1 0 1 0 1 0 0 1
8
0 1 1 0 1 0 0 1
8
1 0 0 1 0 1 1 0
8
1 0 1 0 1 0 0 1
8
0 1 0 1 1 0 1 0
8
0.23957537382947697 0.7604246261705231 0.8888890883677733 0.11111091163222678 0.23620589368770759 0.7637941063122925 0.23456607162651888 0.7654339283734811
4
1 0 1 0
8
0 1 0 1 1 0 1 0
8
0 1 0 1 1 0 1 0
8
1 0 1 0 1 0 0 1
8
1 0 1 0 1 0 1 0
8
0.8220175919160201 0.17798240808397991 0.5614417541254071 0.438558245874593 0.6477921366351996 0.3522078633648003 0.9282775399252432 0.07172246007475676
8
1 0 0 1 1 0 0 1
8
0 1 0 1 0 1 0 1
8
1 0 0 1 0 1 1 0
8
0 1 0 1 0 1 1 0
8
1 0 0 1 0 1 1 0
8
1 0 0 1 1 0 1 0
8
0.6011260413598362 0.3988739586401639 0.2532348290352891 0.746765170964711 0.1307059291150541 0.8692940708849459 0.23070757881500772 0.7692924211849922
8
1 0 1 0 0 1 0 1
8
1 0 0 1 0 1 1 0
8
1 0 0 1 1 0 0 1
8
1 0 0 1 0 1 0 1
8
0 1 0 1 0 1 0 1
8
1 0 1 0 0 1 1 0
8
0 1 0 1 0 1 1 0
8
1 0 0 1 0 1 0 1
8
1 0 0 1 1 0 0 1
8
1 0 1 0 0 1 1 0
8
1 0 1 0 1 0 0 1
8
1 0 1 0 1 0 0 1
4
1 0 0 1
8
1 0 1 0 0 1 1 0
8
1 0 0 1 1 0 0 1
8
1 0 1 0 0 1 0 1
8
0 1 0 1 0 1 0 1
8
0 1 0 1 1 0 1 0
8
0 1 0 1 1 0 0 1
8
0 1 1 0 1 0 1 0
8
0.0794269049370181 0.9205730950629819 0.6019565845745521 0.3980434154254479 0.5101112357206032 0.48988876427939687 0.30492973858257266 0.6950702614174273
8
1 0 1 0 1 0 1 0
8
0 1 0 1 0 1 0 1
8
1 0 1 0 0 1 1 0
8
0 1 1 0 0 1 1 0
8
1 0 0 1 1 0 1 0
8
1 0 0 1 0 1 0 1
8
0 1 0 1 1 0 1 0
8
0 1 1 0 1 0 0 1
8
0.6023689725701207 0.3976310274298794 0.30070474637686906 0.699295253623131 0.14035446353150555 0.8596455364684944 0.7487911425856241 0.251208857414376
8
0 1 0 1 1 0 1 0
8
1 0 0 1 0 1 0 1
8
0.8844196325590955 0.11558036744090447 0.4508350342392633 0.5491649657607367 0.4557061498696837 0.5442938501303163 0.5626543239159499 0.43734567608405006
8
0 1 0 1 0 1 0 1
8
0 1 0 1 0 1 1 0
8
0 1 0 1 1 0 1 0
8
1 0 1 0 1 0 1 0
4
0 1 1 0
8
0 1 0 1 1 0 1 0
8
0 1 1 0 0 1 0 1
8
1 0 0 1 0 1 1 0
8
1 0 1 0 0 1 0 1
8
1 0 0 1 0 1 0 1
8
1 0 1 0 1 0 1 0
8
0 1 0 1 1 0 0 1
8
0.5655800587376323 0.4344199412623678 0.25339770734238753 0.7466022926576125 0.7042218589860227 0.2957781410139772 0.24805237648140543 0.7519476235185946
8
0 1 1 0 1 0 1 0
8
0.6375302583646342 0.3624697416353659 0.8511466294009071 0.14885337059909295 0.40319632777635905 0.596803672223641 0.5329705166601841 0.4670294833398159
8
0 1 0 1 0 1 1 0
8
0 1 0 1 1 0 1 0
8
0 1 0 1 0 1 1 0
8
0 1 1 0 1 0 0 1
8
1 0 0 1 1 0 0 1
8
0 1 0 1 0 1 1 0
8
0 1 0 1 1 0 0 1
8
0 1 0 1 1 0 0 1
8
1 0 0 1 1 0 0 1
8
0 1 1 0 1 0 1 0
8
0 1 1 0 0 1 1 0
8
1 0 0 1 1 0 1 0
8
0.5787274956984868 0.4212725043015132 0.6428594856795987 0.35714051432040134 0.5523315696318697 0.44766843036813037 0.7666422215290075 0.23335777847099246
8
1 0 1 0 0 1 0 1
4
0 1 1 0
8
1 0 1 0 0 1 0 1
8
0 1 0 1 0 1 1 0
8
0 1 1 0 0 1 1 0
8
0 1 1 0 0 1 0 1
8
0 1 1 0 1 0 0 1
8
0 1 0 1 0 1 1 0
8
0 1 1 0 0 1 1 0
8
0 1 0 1 0 1 1 0
8
0.3986864850820973 0.6013135149179027 0.24078657876676038 0.7592134212332396 0.12156669052246193 0.8784333094775381 0.2767064473394671 0.7232935526605329
8
0 1 1 0 1 0 1 0
8
0 1 0 1 0 1 0 1
8
1 0 0 1 0 1 0 1
8
1 0 0 1 0 1 0 1
8
1 0 1 0 0 1 1 0
8
1 0 0 1 1 0 0 1
8
1 0 0 1 1 0 0 1
8
0 1 1 0 1 0 1 0
8
0 1 0 1 0 1 1 0
8
1 0 1 0 0 1 0 1
8
0 1 1 0 1 0 0 1
8
0 1 1 0 0 1 0 1
8
0 1 1 0 1 0 0 1
8
0 1 1 0 0 1 1 0
8
1 0 0 1 0 1 0 1
4
0 1 1 0
8
1 0 0 1 1 0 1 0
8
0 1 1 0 1 0 1 0
8
0.6959617222531226 0.30403827774687736 0.4757062035714566 0.5242937964285435 0.47461110358153313 0.5253888964184669 0.9425438199739778 0.05745618002602211
8
1 0 1 0 1 0 0 1
8
0 1 0 1 0 1 0 1
8
0 1 1 0 1 0 0 1
8
0 1 1 0 1 0 1 0
8
0 1 1 0 0 1 1 0
8
0 1 0 1 0 1 1 0
8
0 1 1 0 1 0 0 1
8
1 0 1 0 1 0 0 1
8
1 0 0 1 1 0 1 0
8
1 0 1 0 1 0 1 0
8
0 1 1 0 0 1 1 0
8
0 1 1 0 0 1 0 1
8
1 0 1 0 0 1 0 1
8
1 0 0 1 1 0 1 0
8
0 1 1 0 0 1 1 0
8
1 0 0 1 0 1 0 1
8
0 1 0 1 1 0 0 1
8
0 1 0 1 0 1 0 1
8
0 1 0 1 0 1 1 0
8
0 1 1 0 1 0 0 1
8
1 0 0 1 1 0 0 1
4
0 1 1 0
8
1 0 0 1 1 0 1 0
8
1 0 0 1 1 0 1 0
8
1 0 0 1 1 0 0 1
8
0.460695514848815 0.5393044851511849 0.8550043961935856 0.14499560380641438 0.6209631378147814 0.3790368621852186 0.6691770534679551 0.33082294653204486
8
0 1 0 1 0 1 0 1
8
0 1 0 1 1 0 0 1
8
1 0 1 0 1 0 0 1
8
0.4715496023324907 0.5284503976675092 0.27561715240200896 0.724382847597991 0.5414564208673927 0.4585435791326073 0.4343773176806078 0.5656226823193922
8
0 1 1 0 1 0 0 1
8
1 0 1 0 1 0 0 1
8
0 1 1 0 1 0 0 1
8
1 0 0 1 1 0 1 0
8
1 0 1 0 0 1 1 0
8
1 0 1 0 0 1 0 1
8
0 1 1 0 0 1 0 1
8
0 1 0 1 1 0 0 1
8
0 1 0 1 0 1 1 0
8
0 1 1 0 1 0 1 0
8
1 0 1 0 1 0 1 0
8
1 0 1 0 1 0 0 1
8
0 1 1 0 1 0 1 0
8
1 0 1 0 1 0 1 0
8
0 1 1 0 0 1 1 0
8
1 0 1 0 0 1 1 0
4
1 0 0 1
8
0 1 0 1 0 1 0 1
8
0 1 1 0 0 1 0 1
8
0 1 1 0 0 1 0 1
8
0 1 1 0 1 0 1 0
8
1 0 1 0 0 1 1 0
8
1 0 1 0 1 0 0 1
8
0.8175149083590099 0.18248509164099014 0.06462637906402406 0.935373620935976 0.5666047958587352 0.4333952041412647 0.6346384760418365 0.36536152395816346
8
1 0 1 0 1 0 1 0
8
1 0 0 1 0 1 1 0
8
0.4682690136070881 0.5317309863929119 0.4955498928270993 0.5044501071729006 0.8949445625517878 0.10505543744821223 0.8087915923641927 0.19120840763580726
8
1 0 0 1 0 1 0 1
8
0.2584997293699156 0.7415002706300844 0.002872760629697183 0.9971272393703028 0.9154987713656223 0.0845012286343777 0.28634552376872396 0.7136544762312761
8
1 0 0 1 0 1 1 0
8
0 1 1 0 0 1 1 0
8
1 0 1 0 1 0 1 0
8
0.7378411715905464 0.26215882840945365 0.05703644469036723 0.9429635553096328 0.5291986890927747 0.4708013109072254 0.5114916720642216 0.48850832793577836
8
0 1 1 0 1 0 0 1
8
1 0 1 0 0 1 0 1
8
0.86657786131663 0.13342213868337008 0.04011376661896406 0.959886233381036 0.6462985567909383 0.3537014432090617 0.4218315911708286 0.5781684088291714
8
0 1 1 0 0 1 1 0
8
0 1 0 1 0 1 1 0
8
0 1 1 0 1 0 0 1
8
1 0 1 0 1 0 0 1
8
0 1 1 0 1 0 1 0
4
1 0 0 1
8
0.5012817082994792 0.4987182917005208 0.5891801928807168 0.41081980711928334 0.5388745881037231 0.4611254118962768 0.364049301707917 0.635950698292083
8
1 0 0 1 0 1 0 1
8
1 0 1 0 0 1 0 1
8
1 0 1 0 0 1 1 0
8
1 0 0 1 1 0 1 0
8
0.7396534618422694 0.2603465381577306 0.7443667136544811 0.25563328634551885 0.11569645901491007 0.8843035409850899 0.5257625894872454 0.47423741051275464
8
0.43398572632780696 0.5660142736721931 0.2170838806338936 0.7829161193661064 0.6927982971407446 0.3072017028592554 0.3477716537436 0.6522283462564
8
1 0 0 1 1 0 0 1
8
0 1 0 1 1 0 0 1
8
1 0 1 0 1 0 0 1
8
0.5337818365484289 0.46621816345157113 0.44187360524708075 0.5581263947529193 0.7209795249841106 0.27902047501588945 0.35121010308829564 0.6487898969117044
8
0 1 1 0 1 0 0 1
8
0 1 1 0 1 0 1 0
8
0 1 0 1 0 1 0 1
8
1 0 1 0 1 0 1 0
8
0 1 1 0 1 0 1 0
8
0 1 0 1 1 0 0 1
8
0 1 1 0 0 1 0 1
8
0 1 0 1 0 1 1 0
8
0 1 1 0 1 0 0 1
8
0 1 1 0 0 1 1 0
8
1 0 1 0 1 0 0 1
8
0 1 1 0 0 1 0 1
8
0 1 1 0 0 1 0 1
4
0 1 0 1
8
0 1 1 0 0 1 1 0
8
0 1 1 0 1 0 0 1
8
0 1 1 0 0 1 0 1
8
0 1 1 0 0 1 1 0
8
1 0 0 1 1 0 1 0
8
1 0 1 0 1 0 1 0
8
1 0 0 1 0 1 0 1
8
1 0 0 1 0 1 0 1
8
0 1 0 1 1 0 1 0
8
1 0 0 1 0 1 0 1
8
1 0 0 1 1 0 0 1
8
0 1 1 0 0 1 0 1
8
0 1 1 0 0 1 0 1
8
1 0 0 1 1 0 0 1
8
1 0 1 0 1 0 1 0
8
0 1 0 1 0 1 0 1
8
0 1 1 0 1 0 1 0
8
0 1 0 1 0 1 0 1
8
1 0 0 1 1 0 1 0
8
0 1 1 0 0 1 0 1
8
1 0 0 1 0 1 1 0
8
0 1 1 0 1 0 1 0
8
1 0 0 1 1 0 0 1
8
0 1 1 0 1 0 0 1
4
0 1 0 1
8
0 1 1 0 1 0 0 1
8
0 1 0 1 1 0 1 0
8
0 1 1 0 0 1 0 1
8
1 0 0 1 0 1 1 0
8
1 0 0 1 0 1 0 1
8
1 0 0 1 0 1 1 0
8
1 0 1 0 0 1 1 0
8
0 1 1 0 1 0 1 0
8
0 1 1 0 1 0 0 1
8
1 0 0 1 1 0 1 0
8
1 0 1 0 1 0 0 1
8
0 1 0 1 0 1 0 1
8
0 1 1 0 1 0 1 0
8
0 1 1 0 1 0 0 1
8
0 1 0 1 1 0 1 0
8
1 0 1 0 0 1 1 0
8
0 1 1 0 0 1 1 0
8
0 1 1 0 1 0 0 1
8
0.6331821096381156 0.3668178903618843 0.3132267215781879 0.686773278421812 0.7414641178011374 0.2585358821988627 0.43182816632267107 0.5681718336773289
8
1 0 1 0 1 0 1 0
8
0 1 0 1 1 0 0 1
8
1 0 1 0 0 1 1 0
8
0 1 0 1 1 0 0 1
8
1 0 0 1 0 1 1 0
4
1 0 0 1
8
0.7539662779815633 0.24603372201843665 0.5040126429687916 0.49598735703120833 0.5779698399596603 0.4220301600403398 0.7098675280946533 0.29013247190534674
8
1 0 0 1 0 1 0 1
8
1 0 1 0 1 0 0 1
8
1 0 1 0 0 1 0 1
8
0.9462986407823949 0.05370135921760514 0.5771845947025557 0.4228154052974443 0.5708737265281656 0.42912627347183446 0.5944176975175258 0.40558230248247423
8
0.8769498411294072 0.1230501588705928 0.29563028115610873 0.7043697188438913 0.6771981651529035 0.32280183484709646 0.8146908646160663 0.18530913538393357
8
0.4933266341243861 0.5066733658756138 0.7253065082289749 0.27469349177102503 0.08314726219233745 0.9168527378076625 0.734621072834972 0.2653789271650281
8
0 1 1 0 1 0 0 1
8
1 0 0 1 1 0 1 0
8
0 1 1 0 0 1 0 1
8
0 1 1 0 1 0 0 1
8
0 1 0 1 0 1 1 0
8
1 0 1 0 1 0 1 0
8
0 1 0 1 0 1 1 0
8
0.3996522992394034 0.6003477007605966 0.4907904425020017 0.5092095574979982 0.6718027143056677 0.32819728569433226 0.3123511491868765 0.6876488508131234
8
0 1 1 0 1 0 1 0
8
0 1 0 1 0 1 1 0
8
0.6735132060035869 0.3264867939964131 0.7496323172728159 0.25036768272718407 0.6075776563879118 0.39242234361208816 0.6142801224437938 0.3857198775562062
8
0 1 0 1 0 1 0 1
8
1 0 1 0 1 0 0 1
8
1 0 0 1 0 1 0 1
8
0 1 0 1 1 0 1 0
8
0.6892057966432379 0.31079420335676206 0.8881957352345417 0.11180426476545831 0.8336876051502834 0.16631239484971663 0.20920917265178743 0.7907908273482126
8
0 1 1 0 0 1 1 0
